c File: flat50_3_0.col
c
c SOURCE: Joseph Culberson (joe@cs.ualberta.ca)
c DESCRIPTION: Quasi-random coloring problem
c              generated with flatness = 0
c                             probability = 0.139
c                             known coloring = 3
c                             random seed = 1297
c              Creation Date:  Tue Jun  9 12:05:55 1998
c Maximum degree = 8 Minimum degree = 1
c p edge 50 115
c cnf created by edge2cnf
p cnf 150 545
-1 -2 0
-1 -3 0
-2 -3 0
1 2 3 0
-4 -5 0
-4 -6 0
-5 -6 0
4 5 6 0
-7 -8 0
-7 -9 0
-8 -9 0
7 8 9 0
-10 -11 0
-10 -12 0
-11 -12 0
10 11 12 0
-13 -14 0
-13 -15 0
-14 -15 0
13 14 15 0
-16 -17 0
-16 -18 0
-17 -18 0
16 17 18 0
-19 -20 0
-19 -21 0
-20 -21 0
19 20 21 0
-22 -23 0
-22 -24 0
-23 -24 0
22 23 24 0
-25 -26 0
-25 -27 0
-26 -27 0
25 26 27 0
-28 -29 0
-28 -30 0
-29 -30 0
28 29 30 0
-31 -32 0
-31 -33 0
-32 -33 0
31 32 33 0
-34 -35 0
-34 -36 0
-35 -36 0
34 35 36 0
-37 -38 0
-37 -39 0
-38 -39 0
37 38 39 0
-40 -41 0
-40 -42 0
-41 -42 0
40 41 42 0
-43 -44 0
-43 -45 0
-44 -45 0
43 44 45 0
-46 -47 0
-46 -48 0
-47 -48 0
46 47 48 0
-49 -50 0
-49 -51 0
-50 -51 0
49 50 51 0
-52 -53 0
-52 -54 0
-53 -54 0
52 53 54 0
-55 -56 0
-55 -57 0
-56 -57 0
55 56 57 0
-58 -59 0
-58 -60 0
-59 -60 0
58 59 60 0
-61 -62 0
-61 -63 0
-62 -63 0
61 62 63 0
-64 -65 0
-64 -66 0
-65 -66 0
64 65 66 0
-67 -68 0
-67 -69 0
-68 -69 0
67 68 69 0
-70 -71 0
-70 -72 0
-71 -72 0
70 71 72 0
-73 -74 0
-73 -75 0
-74 -75 0
73 74 75 0
-76 -77 0
-76 -78 0
-77 -78 0
76 77 78 0
-79 -80 0
-79 -81 0
-80 -81 0
79 80 81 0
-82 -83 0
-82 -84 0
-83 -84 0
82 83 84 0
-85 -86 0
-85 -87 0
-86 -87 0
85 86 87 0
-88 -89 0
-88 -90 0
-89 -90 0
88 89 90 0
-91 -92 0
-91 -93 0
-92 -93 0
91 92 93 0
-94 -95 0
-94 -96 0
-95 -96 0
94 95 96 0
-97 -98 0
-97 -99 0
-98 -99 0
97 98 99 0
-100 -101 0
-100 -102 0
-101 -102 0
100 101 102 0
-103 -104 0
-103 -105 0
-104 -105 0
103 104 105 0
-106 -107 0
-106 -108 0
-107 -108 0
106 107 108 0
-109 -110 0
-109 -111 0
-110 -111 0
109 110 111 0
-112 -113 0
-112 -114 0
-113 -114 0
112 113 114 0
-115 -116 0
-115 -117 0
-116 -117 0
115 116 117 0
-118 -119 0
-118 -120 0
-119 -120 0
118 119 120 0
-121 -122 0
-121 -123 0
-122 -123 0
121 122 123 0
-124 -125 0
-124 -126 0
-125 -126 0
124 125 126 0
-127 -128 0
-127 -129 0
-128 -129 0
127 128 129 0
-130 -131 0
-130 -132 0
-131 -132 0
130 131 132 0
-133 -134 0
-133 -135 0
-134 -135 0
133 134 135 0
-136 -137 0
-136 -138 0
-137 -138 0
136 137 138 0
-139 -140 0
-139 -141 0
-140 -141 0
139 140 141 0
-142 -143 0
-142 -144 0
-143 -144 0
142 143 144 0
-145 -146 0
-145 -147 0
-146 -147 0
145 146 147 0
-148 -149 0
-148 -150 0
-149 -150 0
148 149 150 0
-67 -1 0
-68 -2 0
-69 -3 0
-76 -1 0
-77 -2 0
-78 -3 0
-79 -1 0
-80 -2 0
-81 -3 0
-97 -1 0
-98 -2 0
-99 -3 0
-109 -1 0
-110 -2 0
-111 -3 0
-133 -1 0
-134 -2 0
-135 -3 0
-139 -1 0
-140 -2 0
-141 -3 0
-61 -4 0
-62 -5 0
-63 -6 0
-64 -4 0
-65 -5 0
-66 -6 0
-109 -4 0
-110 -5 0
-111 -6 0
-115 -4 0
-116 -5 0
-117 -6 0
-52 -7 0
-53 -8 0
-54 -9 0
-58 -7 0
-59 -8 0
-60 -9 0
-70 -7 0
-71 -8 0
-72 -9 0
-121 -7 0
-122 -8 0
-123 -9 0
-127 -7 0
-128 -8 0
-129 -9 0
-142 -7 0
-143 -8 0
-144 -9 0
-85 -10 0
-86 -11 0
-87 -12 0
-88 -10 0
-89 -11 0
-90 -12 0
-103 -10 0
-104 -11 0
-105 -12 0
-115 -10 0
-116 -11 0
-117 -12 0
-148 -10 0
-149 -11 0
-150 -12 0
-82 -13 0
-83 -14 0
-84 -15 0
-88 -13 0
-89 -14 0
-90 -15 0
-103 -13 0
-104 -14 0
-105 -15 0
-121 -13 0
-122 -14 0
-123 -15 0
-130 -13 0
-131 -14 0
-132 -15 0
-136 -13 0
-137 -14 0
-138 -15 0
-61 -16 0
-62 -17 0
-63 -18 0
-73 -16 0
-74 -17 0
-75 -18 0
-82 -19 0
-83 -20 0
-84 -21 0
-124 -19 0
-125 -20 0
-126 -21 0
-97 -22 0
-98 -23 0
-99 -24 0
-106 -22 0
-107 -23 0
-108 -24 0
-118 -22 0
-119 -23 0
-120 -24 0
-67 -25 0
-68 -26 0
-69 -27 0
-82 -25 0
-83 -26 0
-84 -27 0
-88 -25 0
-89 -26 0
-90 -27 0
-106 -25 0
-107 -26 0
-108 -27 0
-109 -25 0
-110 -26 0
-111 -27 0
-124 -25 0
-125 -26 0
-126 -27 0
-133 -25 0
-134 -26 0
-135 -27 0
-55 -28 0
-56 -29 0
-57 -30 0
-118 -28 0
-119 -29 0
-120 -30 0
-127 -28 0
-128 -29 0
-129 -30 0
-130 -28 0
-131 -29 0
-132 -30 0
-58 -31 0
-59 -32 0
-60 -33 0
-73 -31 0
-74 -32 0
-75 -33 0
-100 -31 0
-101 -32 0
-102 -33 0
-64 -34 0
-65 -35 0
-66 -36 0
-67 -34 0
-68 -35 0
-69 -36 0
-79 -34 0
-80 -35 0
-81 -36 0
-127 -34 0
-128 -35 0
-129 -36 0
-94 -37 0
-95 -38 0
-96 -39 0
-70 -40 0
-71 -41 0
-72 -42 0
-91 -40 0
-92 -41 0
-93 -42 0
-112 -40 0
-113 -41 0
-114 -42 0
-124 -40 0
-125 -41 0
-126 -42 0
-127 -40 0
-128 -41 0
-129 -42 0
-58 -43 0
-59 -44 0
-60 -45 0
-91 -43 0
-92 -44 0
-93 -45 0
-100 -43 0
-101 -44 0
-102 -45 0
-124 -43 0
-125 -44 0
-126 -45 0
-130 -43 0
-131 -44 0
-132 -45 0
-142 -43 0
-143 -44 0
-144 -45 0
-55 -46 0
-56 -47 0
-57 -48 0
-58 -46 0
-59 -47 0
-60 -48 0
-61 -46 0
-62 -47 0
-63 -48 0
-88 -46 0
-89 -47 0
-90 -48 0
-103 -46 0
-104 -47 0
-105 -48 0
-145 -46 0
-146 -47 0
-147 -48 0
-64 -49 0
-65 -50 0
-66 -51 0
-70 -49 0
-71 -50 0
-72 -51 0
-94 -49 0
-95 -50 0
-96 -51 0
-103 -49 0
-104 -50 0
-105 -51 0
-115 -49 0
-116 -50 0
-117 -51 0
-133 -49 0
-134 -50 0
-135 -51 0
-139 -49 0
-140 -50 0
-141 -51 0
-115 -52 0
-116 -53 0
-117 -54 0
-148 -52 0
-149 -53 0
-150 -54 0
-115 -55 0
-116 -56 0
-117 -57 0
-121 -55 0
-122 -56 0
-123 -57 0
-130 -55 0
-131 -56 0
-132 -57 0
-133 -55 0
-134 -56 0
-135 -57 0
-130 -58 0
-131 -59 0
-132 -60 0
-136 -58 0
-137 -59 0
-138 -60 0
-139 -58 0
-140 -59 0
-141 -60 0
-142 -58 0
-143 -59 0
-144 -60 0
-118 -61 0
-119 -62 0
-120 -63 0
-127 -61 0
-128 -62 0
-129 -63 0
-133 -64 0
-134 -65 0
-135 -66 0
-109 -67 0
-110 -68 0
-111 -69 0
-112 -67 0
-113 -68 0
-114 -69 0
-145 -67 0
-146 -68 0
-147 -69 0
-118 -70 0
-119 -71 0
-120 -72 0
-139 -70 0
-140 -71 0
-141 -72 0
-148 -70 0
-149 -71 0
-150 -72 0
-130 -73 0
-131 -74 0
-132 -75 0
-148 -73 0
-149 -74 0
-150 -75 0
-121 -76 0
-122 -77 0
-123 -78 0
-109 -79 0
-110 -80 0
-111 -81 0
-130 -79 0
-131 -80 0
-132 -81 0
-139 -79 0
-140 -80 0
-141 -81 0
-103 -82 0
-104 -83 0
-105 -84 0
-118 -82 0
-119 -83 0
-120 -84 0
-145 -82 0
-146 -83 0
-147 -84 0
-115 -85 0
-116 -86 0
-117 -87 0
-124 -85 0
-125 -86 0
-126 -87 0
-127 -85 0
-128 -86 0
-129 -87 0
-139 -85 0
-140 -86 0
-141 -87 0
-148 -91 0
-149 -92 0
-150 -93 0
-136 -94 0
-137 -95 0
-138 -96 0
-127 -97 0
-128 -98 0
-129 -99 0
-118 -100 0
-119 -101 0
-120 -102 0
-145 -100 0
-146 -101 0
-147 -102 0
